networks/zoo_22_110/zoo_22_110-lower.txt
Number of groups: 11
Flow 4: {1 10 0} {10 5 0} {5 16 0} 
Flow 20: {2 10 0} {10 11 0} {11 22 0} 
Flow 21: {3 10 0} {10 1 0} {1 12 0} 
Flow 37: {4 10 0} {10 8 0} {8 19 0} 
Flow 44: {5 10 0} {10 4 0} {4 15 0} 
Flow 59: {6 10 0} {10 21 0} 
Flow 68: {7 10 0} {10 9 0} {9 20 0} 
Flow 76: {8 10 0} {10 6 0} {6 17 0} 
Flow 83: {9 10 0} {10 3 0} {3 14 0} 
Flow 97: {10 7 0} {7 18 0} 
Flow 102: {11 10 0} {10 2 0} {2 13 0} 
Time taken running everything: 1 seconds
