networks/zoo_22_110/zoo_22_110-lower.sol
<?xml version = "1.0" encoding="UTF-8" standalone="yes"?>
<CPLEXSolution version="1.2">
 <header
   problemName="networks/zoo_22_110/zoo_22_110-lower.lp"
   solutionName="incumbent"
   solutionIndex="-1"
   objectiveValue="11"
   solutionTypeValue="3"
   solutionTypeString="primal"
   solutionStatusValue="101"
   solutionStatusString="integer optimal solution"
   solutionMethodString="mip"
   primalFeasible="1"
   dualFeasible="1"
   MIPNodes="0"
   MIPIterations="143"
   writeLevel="3"/>
 <quality
   epInt="1.0000000000000001e-05"
   epRHS="9.9999999999999995e-07"
   maxIntInfeas="0"
   maxPrimalInfeas="0"
   maxX="1"
   maxSlack="1"/>
 <variables>
  <variable name="Y(4,5)" index="70" value="1"/>
  <variable name="Y(20,11)" index="428" value="1"/>
  <variable name="Y(21,1)" index="440" value="1"/>
  <variable name="Y(37,8)" index="799" value="1"/>
  <variable name="Y(44,4)" index="949" value="1"/>
  <variable name="Y(59,10)" index="1285" value="1"/>
  <variable name="Y(68,9)" index="1482" value="1"/>
  <variable name="Y(76,6)" index="1655" value="1"/>
  <variable name="Y(83,3)" index="1806" value="1"/>
  <variable name="Y(97,7)" index="2118" value="1"/>
  <variable name="Y(102,2)" index="2223" value="1"/>
  <variable name="X(1,10,4)" index="2423" value="1"/>
  <variable name="X(1,12,21)" index="2550" value="1"/>
  <variable name="X(2,10,20)" index="2659" value="1"/>
  <variable name="X(2,13,102)" index="2851" value="1"/>
  <variable name="X(3,10,21)" index="2880" value="1"/>
  <variable name="X(3,14,83)" index="3052" value="1"/>
  <variable name="X(4,10,37)" index="3116" value="1"/>
  <variable name="X(4,15,44)" index="3233" value="1"/>
  <variable name="X(5,10,44)" index="3343" value="1"/>
  <variable name="X(5,16,4)" index="3413" value="1"/>
  <variable name="X(6,10,59)" index="3578" value="1"/>
  <variable name="X(6,17,76)" index="3705" value="1"/>
  <variable name="X(7,10,68)" index="3807" value="1"/>
  <variable name="X(7,18,97)" index="3946" value="1"/>
  <variable name="X(8,10,76)" index="4035" value="1"/>
  <variable name="X(8,19,37)" index="4106" value="1"/>
  <variable name="X(9,10,83)" index="4262" value="1"/>
  <variable name="X(9,20,68)" index="4357" value="1"/>
  <variable name="X(10,1,21)" index="4420" value="1"/>
  <variable name="X(10,2,102)" index="4611" value="1"/>
  <variable name="X(10,3,83)" index="4702" value="1"/>
  <variable name="X(10,4,44)" index="4773" value="1"/>
  <variable name="X(10,5,4)" index="4843" value="1"/>
  <variable name="X(10,6,76)" index="5025" value="1"/>
  <variable name="X(10,7,97)" index="5156" value="1"/>
  <variable name="X(10,8,37)" index="5206" value="1"/>
  <variable name="X(10,9,68)" index="5347" value="1"/>
  <variable name="X(10,11,20)" index="5409" value="1"/>
  <variable name="X(10,21,59)" index="5558" value="1"/>
  <variable name="X(11,10,102)" index="5711" value="1"/>
  <variable name="X(11,22,20)" index="5739" value="1"/>
 </variables>
</CPLEXSolution>
